14,5	0,0	12,3	9,5	0,0	0,0	0,0	0,0	0,0	13,2
8,2	14,3	0,0	8,3	9,2	0,0	0,0	10,9	0,0	0,0
0,0	0,0	19,4	0,0	6,7	7,0	0,0	0,0	9,6	0,0
14,7	0,0	7,8	0,0	0,0	0,0	8,5	0,0	0,0	0,0
0,0	19,8	0,0	10,5	13,8	0,0	0,0	12,8	0,0	0,0
0,0	8,4	15,4	0,0	16,5	16,6	0,0	0,0	8,3	0,0
0,0	9,9	0,0	16,1	0,0	0,0	16,5	0,0	0,0	6,2
11,2	0,0	8,1	0,0	0,0	0,0	0,0	0,0	0,0	6,2
0,0	5,4	0,0	11,7	14,2	0,0	0,0	12,0	0,0	0,0
0,0	0,0	12,8	0,0	0,0	8,8	11,1	0,0	0,0	9,4
0,0	9,8	0,0	0,0	18,0	0,0	13,6	0,0	11,7	8,3
18,6	0,0	12,8	0,0	11,6	0,0	9,3	9,8	9,8	0,0
0,0	17,1	0,0	0,0	0,0	16,8	0,0	16,6	5,4	11,0
12,2	16,8	13,8	0,0	0,0	14,3	0,0	13,3	6,5	0,0
8,5	0,0	10,0	0,0	9,9	7,6	9,6	8,8	0,0	0,0
0,0	12,1	0,0	10,3	0,0	6,6	0,0	12,9	0,0	0,0
16,2	0,0	5,3	10,9	9,5	0,0	0,0	13,7	0,0	0,0
0,0	0,0	9,0	0,0	0,0	16,5	16,3	0,0	7,7	6,3
11,2	0,0	0,0	9,2	9,8	14,0	12,8	14,0	0,0	16,5
0,0	17,0	0,0	14,6	0,0	0,0	6,5	0,0	15,9	17,9
									
4,6	4,3	3,3	3,6	4,8	4,4	2,8	2,9	4,2	3,6
